c 1 3 S
p cnf 3 3
1 2 0
-1 3 0
-2 -3 0
c 2 2 U
p cnf 2 4
1 2 0
-1 2 0
1 -2 0
-1 -2 0
c 3 4 S
p cnf 4 4
1 2 3 0
-1 4 0
-2 -3 0
-4 3 0
c 4 3 U
p cnf 3 4
1 0
2 0
3 0
-1 -2 -3 0
c 5 3 S
p cnf 3 2
1 -2 0
2 3 0
c 6 1 U
p cnf 1 2
1 0
-1 0
c 7 4 S
p cnf 4 4
1 -2 0
2 -3 0
3 4 0
-4 1 0
c 8 2 U
p cnf 2 4
1 0
-1 2 0
-2 0
2 0
c 9 5 S
p cnf 5 4
1 2 0
-1 3 0
-3 4 0
-4 5 0
c 10 3 U
p cnf 3 6
1 2 0
-1 2 0
1 -2 0
-1 -2 0
3 0
-3 0
c 11 3 S
p cnf 3 4
1 2 3 0
-1 2 3 0
1 -2 3 0
1 2 -3 0
c 12 4 U
p cnf 4 6
1 0
2 0
3 0
-1 0
-2 0
-3 0
c 13 4 S
p cnf 4 4
1 -2 3 0
-1 2 0
-3 4 0
-4 0
c 14 2 U
p cnf 2 3
1 0
2 0
-1 -2 0
c 15 2 S
p cnf 2 1
1 2 0
c 16 3 U
p cnf 3 8
1 2 3 0
1 2 -3 0
1 -2 3 0
1 -2 -3 0
-1 2 3 0
-1 2 -3 0
-1 -2 3 0
-1 -2 -3 0
c 17 5 S
p cnf 5 4
1 -2 0
2 -3 0
3 -4 0
4 -5 0
c 18 3 U
p cnf 3 2
1 0
-1 0
c 19 3 S
p cnf 3 3
1 2 0
-1 -2 0
3 0
c 20 4 S
p cnf 4 4
1 2 3 4 0
-1 2 0
-2 3 0
-3 4 0
